
;this file is automatically generated: Mon Feb 10 17:01:40 CST 2020

;declarations generated

(declare-fun oclExcludes ( Int Int) Bool)
(declare-fun Cardinality ( Int) Int)
(declare-fun type_fa462aff_93c1_4a7f_8fe8_fad9ac8ddd08_Class42 ( Int) Bool)
(declare-fun class42_Class42BoolAttr1 ( Int) Bool)
(declare-fun class42_Class42BoolAttr0 ( Int) Bool)
(declare-fun obj_f691cfeb_fd74_4e79_b119_da1946ddc48f ( Int) Int)
(declare-fun oclSelect ( Int Bool) Int)
(declare-fun Enum0 ( Int) Int)
(declare-fun Enum1 ( Int) Int)
(declare-fun Enum2 ( Int) Int)
(declare-fun class42_Class42IntAttr2 ( Int) Int)
(declare-fun container_ ( Int) Int)
(declare-fun oclIncludes ( Int Int) Bool)
(declare-fun ObjAt ( Int Int) Int)

;formula(s) generated
(assert (! (exists ((c1 Int)(c2 Int)) (and (and ( type_fa462aff_93c1_4a7f_8fe8_fad9ac8ddd08_Class42 c1 )  ( type_fa462aff_93c1_4a7f_8fe8_fad9ac8ddd08_Class42 c2 ) ) (or ( class42_Class42BoolAttr0 ( obj_f691cfeb_fd74_4e79_b119_da1946ddc48f c1 )  )  ( class42_Class42BoolAttr1 ( obj_f691cfeb_fd74_4e79_b119_da1946ddc48f c2 )  ) ))):named l0))
(assert (! (forall ((v Int)) (=> ( type_fa462aff_93c1_4a7f_8fe8_fad9ac8ddd08_Class42 v )  (or ( class42_Class42BoolAttr1 ( obj_f691cfeb_fd74_4e79_b119_da1946ddc48f v )  )  (or (forall ((v Int)) (=> ( type_fa462aff_93c1_4a7f_8fe8_fad9ac8ddd08_Class42 v )  (or ( class42_Class42BoolAttr0 ( obj_f691cfeb_fd74_4e79_b119_da1946ddc48f v )  )  (and (forall ((v Int)) (=> ( type_fa462aff_93c1_4a7f_8fe8_fad9ac8ddd08_Class42 v )  ( class42_Class42BoolAttr1 ( obj_f691cfeb_fd74_4e79_b119_da1946ddc48f v )  ) )) (forall ((v Int)) (=> ( type_fa462aff_93c1_4a7f_8fe8_fad9ac8ddd08_Class42 v )  ( class42_Class42BoolAttr0 ( obj_f691cfeb_fd74_4e79_b119_da1946ddc48f v )  ) )))))) (forall ((v Int)) (=> ( type_fa462aff_93c1_4a7f_8fe8_fad9ac8ddd08_Class42 v )  (< ( class42_Class42IntAttr2 ( obj_f691cfeb_fd74_4e79_b119_da1946ddc48f v )  )  5))))))):named l1))
(assert (exists ((o Int)) ( type_fa462aff_93c1_4a7f_8fe8_fad9ac8ddd08_Class42 ( obj_f691cfeb_fd74_4e79_b119_da1946ddc48f o )  ) ))

 ;end of formula 